; benchmark generated from python API
(set-info :status unknown)
(declare-fun x4 () Real)
(declare-fun x3 () Real)
(declare-fun bool.b19 () Bool)
(declare-fun bool.b17 () Bool)
(declare-fun bool.b20 () Bool)
(declare-fun bool.b24 () Bool)
(declare-fun bool.b18 () Bool)
(declare-fun bool.b21 () Bool)
(declare-fun bool.b22 () Bool)
(declare-fun bool.b23 () Bool)
(assert
 (forall ((?lambda Real) )(let ((?x4482 (* 20.0 ?lambda)))
 (let ((?x12688 (+ x4 ?x4482)))
 (let ((?x26295 (- 1.0)))
 (let ((?x8651 (* ?x26295 ?x12688)))
 (let (($x31856 (<= ?x8651 (- 4910.0))))
 (let (($x7974 (not $x31856)))
 (let (($x3691 (not (<= (* 1.0 (+ x3 (* ?x26295 ?lambda))) 33.0))))
 (let (($x27356 (not (and bool.b19 (not (and $x3691 $x7974))))))
 (let (($x30600 (and bool.b17 (not (and (not (<= ?x8651 (- 4100.0))) $x3691)))))
 (let (($x755 (not $x30600)))
 (let ((?x33634 (+ x3 (* ?x26295 ?lambda))))
 (let ((?x10420 (* 1.0 ?x33634)))
 (let (($x3274 (<= ?x10420 0.0)))
 (let (($x12981 (and bool.b20 $x3274)))
 (let (($x39632 (not $x12981)))
 (let (($x10559 (and bool.b24 (not (and $x39632 (and $x755 $x27356))))))
 (let (($x10178 (<= ?x8651 (- 4500.0))))
 (let (($x11574 (and bool.b18 $x10178)))
 (let (($x2313 (not (and $x11574 $x10559))))
 (let (($x16326 (not (and bool.b19 $x31856))))
 (let (($x9512 (and (and $x755 (not (and bool.b18 (not (and $x3691 (not $x10178)))))) $x27356)))
 (let (($x14891 (not (and $x9512 $x39632))))
 (let (($x20746 (and bool.b19 $x14891)))
 (let (($x33892 (and $x2313 (not (and $x20746 (and $x16326 $x2313))))))
 (let (($x22873 (not $x33892)))
 (let (($x10530 (not (and $x31856 $x22873))))
 (let (($x12309 (not (and bool.b24 (and $x10178 (and bool.b17 (<= ?x8651 (- 4100.0))))))))
 (let (($x4083 (and $x12309 (not (and $x22873 (and $x12309 $x10530))))))
 (let (($x8191 (and $x7974 (not $x4083))))
 (let (($x15535 (not $x8191)))
 (let (($x11588 (and bool.b18 $x14891)))
 (let (($x555 (not $x11574)))
 (let (($x24213 (<= ?x8651 (- 4100.0))))
 (let (($x5611 (and bool.b17 $x24213)))
 (let (($x4491 (not $x5611)))
 (let (($x24264 (and $x4491 $x555)))
 (let (($x14679 (and $x4491 (not (and $x24264 $x11588)))))
 (let (($x8539 (not $x14679)))
 (let (($x30765 (not $x10178)))
 (let (($x12536 (and $x30765 $x8539)))
 (let (($x34458 (not $x12536)))
 (let (($x34444 (not $x24213)))
 (let (($x7884 (and $x34444 $x30600)))
 (let (($x32457 (not $x7884)))
 (let (($x6285 (and $x32457 $x34458)))
 (let (($x33947 (not (and $x11574 (not $x10559)))))
 (let (($x26749 (not (and (<= (* 1.0 ?x12688) 4820.0) $x12981))))
 (let (($x13998 (not (and (not (<= (* 1.0 ?x12688) 4820.0)) $x12981))))
 (let (($x9229 (and bool.b20 $x14891)))
 (let (($x12770 (and $x33947 (not (and $x9229 (and $x13998 (and $x26749 $x33947)))))))
 (let (($x38684 (not $x12770)))
 (let (($x30825 (and $x3274 $x38684)))
 (let (($x10216 (<= (* 1.0 ?x12688) 4820.0)))
 (let (($x21134 (not (and $x10216 $x30825))))
 (let (($x14788 (not (and (not bool.b24) (and $x10178 $x5611)))))
 (let (($x9359 (not (and (not $x10216) $x30825))))
 (let (($x9874 (and $x14788 (not (and $x38684 (and $x9359 (and $x14788 $x21134)))))))
 (let (($x16571 (not $x9874)))
 (let (($x10289 (not $x3274)))
 (let (($x8977 (and $x10289 $x16571)))
 (let (($x6586 (not $x8977)))
 (let (($x13297 (<= (+ ?x10420 (* (/ 1.0 15.0) ?x12688)) (/ 964.0 3.0))))
 (let (($x17398 (<= ?x10420 20.0)))
 (let (($x6559 (and (not (and $x17398 (and $x13297 $x8977))) (not (and $x14891 (and $x6586 (and $x6285 $x15535)))))))
 (let (($x13876 (not $x6559)))
 (let (($x16210 (not (and $x3274 (not $x13297)))))
 (let (($x22751 (not (<= (* ?x26295 ?x33634) (- 20.0)))))
 (let (($x11144 (not (and $x22751 (and $x30765 (not (and $x4491 (not (and bool.b18 $x24264)))))))))
 (let (($x4166 (and (not (and $x22751 (and bool.b17 $x34444))) $x11144)))
 (let (($x10678 (and $x4166 (not (and $x22751 $x8191)))))
 (let (($x6583 (and $x34458 $x15535)))
 (let (($x2040 (and $x6586 $x6583)))
 (let (($x12386 (and bool.b21 $x14891)))
 (let (($x32216 (not $x12386)))
 (let (($x6397 (and $x13998 $x32216)))
 (let (($x9178 (and $x6397 $x9359)))
 (let (($x15584 (and bool.b20 (and (and (not (and (not bool.b24) $x11574)) $x26749) $x13998))))
 (let (($x33926 (not (and (not bool.b24) $x11574))))
 (let (($x11282 (not (and $x33926 (not $x15584)))))
 (let (($x24689 (and $x3274 $x11282)))
 (let (($x19874 (and $x11282 (and (not (and (not $x10216) $x24689)) (and (not (and $x10216 $x24689)) $x14788)))))
 (let (($x13544 (and $x3274 (not (and $x14788 (not $x19874))))))
 (let (($x19808 (not $x10216)))
 (let (($x5220 (and (not (and $x19808 $x13544)) $x9178)))
 (let (($x6716 (and $x5220 $x2040)))
 (let (($x27500 (and bool.b22 $x14891)))
 (let (($x6452 (not $x27500)))
 (let (($x15899 (and $x26749 $x6452)))
 (let (($x26928 (and $x15899 $x21134)))
 (let (($x16159 (and (not (and $x10216 $x13544)) $x26928)))
 (let (($x4064 (and bool.b23 $x14891)))
 (let (($x18955 (not $x4064)))
 (let (($x22786 (and $x16326 $x18955)))
 (let (($x34004 (and $x22786 $x10530)))
 (let (($x242 (not (and bool.b24 $x11574))))
 (let (($x13731 (not (and $x242 (not (and bool.b19 (and $x16326 $x242)))))))
 (let (($x10723 (and $x31856 (not (and $x12309 (not (and $x13731 (and (not (and $x31856 $x13731)) $x12309))))))))
 (let (($x23862 (and (not $x10723) $x34004)))
 (let (($x38996 (not $x23862)))
 (let (($x10176 (not $x6583)))
 (let (($x3142 (not (and (not (and $x555 (not (and $x20746 (and $x555 $x16326))))) $x12536))))
 (let (($x8223 (not (and (not (and $x8977 $x10176)) (not (and $x6586 (not (and $x3142 $x10176))))))))
 (let (($x15599 (and $x16159 (not (and (not (and $x5220 $x8223)) (not (and (not $x5220) (not $x2040))))))))
 (let (($x1242 (not (and $x23862 (not (and (not $x15599) (not (and (not $x16159) (not $x6716)))))))))
 (let (($x20896 (not (and $x32457 (not (and $x1242 (not (and $x38996 (not (and $x16159 $x6716))))))))))
 (let (($x322 (and $x555 (not (and $x20746 (and $x555 $x16326))))))
 (let (($x4133 (and $x14679 $x322)))
 (let (($x14560 (and $x10289 $x9229)))
 (let (($x6724 (not $x14560)))
 (let (($x20776 (and $x6724 $x4133)))
 (let (($x36 (and $x6397 $x20776)))
 (let (($x16051 (and $x15899 $x36)))
 (let (($x11557 (not (and $x7884 (not (and $x22786 $x16051))))))
 (let (($x19453 (and $x23862 (not (and (not (and $x6586 $x16159)) (not (and $x8977 (not $x16159))))))))
 (let (($x19670 (and $x5220 (not (and (not $x19453) (not (and $x38996 (not (and $x6586 $x16159)))))))))
 (let (($x6437 (and (not $x19670) (not (and (not $x5220) (not (and $x23862 (and $x6586 $x16159))))))))
 (let (($x21804 (and (not (and $x10289 (not (and $x15535 (and $x34458 (and $x32457 $x6437)))))) (not (and $x3274 (and $x10216 (not (and $x11557 $x20896))))))))
 (let (($x9791 (and (not (and $x10678 (not $x21804))) (not (and $x16210 (not $x10678))))))
 (let (($x17526 (not (and (not (<= ?x10420 45.0)) $x12536))))
 (let (($x6958 (and (and $x17526 (not (and (not (<= ?x10420 45.0)) $x8191))) (not (and (not (<= ?x10420 40.0)) (and (not $x13297) $x16571))))))
 (let (($x9716 (not (and (<= ?x10420 40.0) (and (and (<= ?x10420 45.0) $x3691) $x12536)))))
 (let (($x12966 (and $x9716 (not (and (<= ?x10420 40.0) (and (and (<= ?x10420 45.0) $x3691) $x8191))))))
 (let (($x19976 (and $x12966 (not (and (<= ?x10420 40.0) (and (not $x17398) (and $x13297 $x16571)))))))
 (let (($x39009 (and $x19976 (and $x6958 (and (not (and $x6559 (not $x9791))) (not (and $x16210 $x13876)))))))
 (let (($x14856 (not (<= (+ ?x10420 (* (/ 3.0 20.0) ?x12688)) 723.0))))
 (let ((?x4781 (+ ?x10420 (* (/ 3.0 20.0) ?x12688))))
 (let (($x16792 (<= ?x4781 1200.0)))
 (let (($x5839 (and $x17398 (and (not $x13297) $x8977))))
 (let ((?x789 (+ ?x10420 (* (/ 1.0 20.0) ?x12688))))
 (let (($x14032 (<= ?x789 400.0)))
 (let (($x7449 (and (not (and $x16210 $x6559)) (not (and $x13876 (not (and $x14032 (and (not (<= ?x789 241.0)) $x9791))))))))
 (let (($x33775 (and (not (and (not $x5839) (not $x7449))) (not (and $x5839 (not (and $x16792 (and $x14856 $x39009))))))))
 (let (($x4565 (and (not $x34004) (not (and $x26928 (and $x9178 (and $x9874 (and $x34458 $x4083))))))))
 (let (($x25957 (and (not (and $x9874 (not (and $x3142 (not (and $x34458 $x4083)))))) (not (and $x16571 (not (and $x34458 $x4083)))))))
 (let (($x10741 (and (not (and $x9178 (not $x25957))) (not (and (not $x9178) (not (and $x9874 (and $x34458 $x4083))))))))
 (let (($x189 (and (not (and $x26928 (not $x10741))) (not (and (not $x26928) (not (and $x9178 (and $x9874 (and $x34458 $x4083)))))))))
 (let (($x32330 (and $x11557 (not (and $x32457 (not (and (not (and $x34004 (not $x189))) (not $x4565))))))))
 (let (($x29517 (not (and $x12770 (not (and (not (and $x14679 $x33892)) (not (and $x8539 $x22873))))))))
 (let (($x21077 (not (and $x6397 (not (and $x29517 (not (and $x38684 (not (and $x14679 $x33892))))))))))
 (let (($x94 (not (and (not $x6397) (not $x20776)))))
 (let (($x6678 (not (and (not $x15899) (not $x36)))))
 (let (($x7063 (not (and $x22786 (not (and $x6678 (not (and $x15899 (not (and $x94 $x21077))))))))))
 (let (($x11348 (not (and (not $x22786) (not $x16051)))))
 (let (($x14172 (and (and $x11557 (not (and $x32457 (not (and $x11348 $x7063))))) (not (and $x16210 (not (and $x32330 $x33775)))))))
 (let (($x16850 (and (not $x11588) (not $x20746))))
 (let (($x18956 (not $x9229)))
 (let (($x22452 (and $x18956 $x16850)))
 (let (($x901 (and $x32216 $x22452)))
 (let (($x9626 (and $x6452 $x901)))
 (let (($x39019 (and (not (and $x18956 (not (and (not $x16850) (not (and bool.b19 $x11588)))))) (not (and $x9229 (not $x16850))))))
 (let (($x26037 (and $x6452 (not (and (not (and $x32216 (not $x39019))) (not (and $x12386 (not $x22452))))))))
 (let (($x14058 (and (not (and $x18955 (not (and (not $x26037) (not (and $x27500 (not $x901))))))) (not (and $x4064 (not $x9626))))))
 (let (($x29967 (and (not (and $x755 (not $x14058))) (not (and $x30600 (not (and $x18955 $x9626)))))))
 (let (($x3544 (and $x10178 $x5611)))
 (let (($x3976 (and $x3544 (not (and (not (and bool.b18 (not (and $x3691 $x30765)))) (not $x10559))))))
 (let (($x6941 (not $x3976)))
 (let (($x9496 (not (and $x31856 (not $x322)))))
 (let (($x19411 (not $x322)))
 (let (($x870 (and $x6941 (not (and $x19411 (and $x9496 $x6941))))))
 (let (($x11942 (not $x870)))
 (let (($x20901 (and $x7974 $x11942)))
 (let (($x7038 (not $x20901)))
 (let (($x12925 (not $x10559)))
 (let (($x7474 (not (and bool.b18 (not (and $x3691 $x30765))))))
 (let (($x27380 (and $x7474 $x12925)))
 (let (($x4086 (and $x6724 (not (and $x3544 $x27380)))))
 (let (($x22913 (not $x4086)))
 (let (($x8838 (and $x10289 $x22913)))
 (let (($x18003 (not $x8838)))
 (let (($x39301 (and (not (and $x17398 (and $x13297 $x8838))) (not (and $x14891 (and $x18003 (and $x7038 $x6285)))))))
 (let (($x13138 (not $x39301)))
 (let (($x3901 (and $x34458 $x7038)))
 (let (($x4242 (and $x18003 $x3901)))
 (let (($x8397 (and $x6397 (not (and $x19808 (and $x3274 $x22913))))))
 (let (($x6062 (and $x8397 $x4242)))
 (let (($x3896 (and $x15899 (not (and $x10216 (and $x3274 $x22913))))))
 (let (($x935 (and $x22786 $x9496)))
 (let (($x581 (and $x935 (not (and $x31856 $x11942)))))
 (let (($x13762 (not $x581)))
 (let (($x9917 (and (not (and $x8838 (not $x3901))) (not (and $x18003 (not (and $x3142 (not $x3901))))))))
 (let (($x29504 (not (and (not (and $x8397 (not $x9917))) (not (and (not $x8397) (not $x4242)))))))
 (let (($x12605 (and $x581 (not (and (not (and $x3896 $x29504)) (not (and (not $x3896) (not $x6062))))))))
 (let (($x24997 (and $x32457 (not (and (not $x12605) (not (and $x13762 (not (and $x3896 $x6062)))))))))
 (let (($x4447 (and $x581 (not (and (not (and $x18003 $x3896)) (not (and $x8838 (not $x3896))))))))
 (let (($x31023 (and $x8397 (not (and (not $x4447) (not (and $x13762 (not (and $x18003 $x3896)))))))))
 (let (($x3890 (and (not $x31023) (not (and (not $x8397) (not (and $x581 (and $x18003 $x3896))))))))
 (let (($x11404 (and (not (and $x10289 (not (and $x7038 (and $x34458 (and $x32457 $x3890)))))) (not (and $x3274 (and $x10216 (not (and $x11557 (not $x24997)))))))))
 (let (($x5671 (and $x4166 (not (and $x22751 $x20901)))))
 (let (($x16640 (and (not (and $x5671 (not $x11404))) (not (and $x16210 (not $x5671))))))
 (let (($x14408 (and (and $x17526 (not (and (not (<= ?x10420 45.0)) $x20901))) (not (and (not (<= ?x10420 40.0)) (and (not $x13297) $x22913))))))
 (let (($x666 (and $x9716 (not (and (<= ?x10420 40.0) (and (and (<= ?x10420 45.0) $x3691) $x20901))))))
 (let (($x10771 (and $x666 (not (and (<= ?x10420 40.0) (and (not $x17398) (and $x13297 $x22913)))))))
 (let (($x19333 (and $x10771 (and $x14408 (and (not (and $x39301 (not $x16640))) (not (and $x16210 $x13138)))))))
 (let (($x10586 (and $x17398 (and (not $x13297) $x8838))))
 (let (($x31811 (and (not (and $x16210 $x39301)) (not (and $x13138 (not (and $x14032 (and (not (<= ?x789 241.0)) $x16640))))))))
 (let (($x28448 (and (not (and (not $x10586) (not $x31811))) (not (and $x10586 (not (and $x16792 (and $x14856 $x19333))))))))
 (let (($x1893 (and (not $x935) (not (and $x15899 (and $x6397 (and $x4086 (and $x34458 $x870))))))))
 (let (($x566 (and (not (and $x4086 (not (and $x3142 (not (and $x34458 $x870)))))) (not (and $x22913 (not (and $x34458 $x870)))))))
 (let (($x27408 (and (not (and $x6397 (not $x566))) (not (and (not $x6397) (not (and $x4086 (and $x34458 $x870))))))))
 (let (($x15772 (and (not (and $x15899 (not $x27408))) (not (and (not $x15899) (not (and $x6397 (and $x4086 (and $x34458 $x870)))))))))
 (let (($x1323 (and $x11557 (not (and $x32457 (not (and (not (and $x935 (not $x15772))) (not $x1893))))))))
 (let (($x11662 (and (not (and $x6724 (not (and (not $x4133) (not (and $x8539 $x19411)))))) (not (and $x14560 (not $x4133))))))
 (let (($x3888 (and $x6678 (not (and $x15899 (not (and $x94 (not (and $x6397 (not $x11662))))))))))
 (let (($x39308 (and $x11557 (not (and $x32457 (not (and $x11348 (not (and $x22786 (not $x3888))))))))))
 (let (($x22610 (not (and $x16210 (not (and $x39308 (not (and $x16210 (not (and $x1323 $x28448))))))))))
 (let (($x12590 (and (not (and $x29967 $x22610)) (not (and $x29967 (not (and $x16210 (not $x14172))))))))
 (let (($x15581 (not bool.b19)))
 (let (($x19086 (not bool.b18)))
 (let (($x2456 (and $x19086 $x15581)))
 (let (($x21212 (not bool.b20)))
 (let (($x6998 (and $x21212 $x2456)))
 (let (($x30774 (not bool.b21)))
 (let (($x13794 (and $x30774 $x6998)))
 (let (($x6784 (not bool.b22)))
 (let (($x17299 (and $x6784 $x13794)))
 (let (($x31425 (not bool.b23)))
 (let (($x2918 (not (and $x21212 (not (and (not $x2456) (not (and bool.b18 bool.b19))))))))
 (let (($x6069 (not (and $x30774 (not (and $x2918 (not (and bool.b20 (not $x2456)))))))))
 (let (($x39607 (and (not (and $x6784 (not (and $x6069 (not (and bool.b21 (not $x6998))))))) (not (and bool.b22 (not $x13794))))))
 (let (($x6027 (not (and (not (and $x31425 (not $x39607))) (not (and bool.b23 (not $x17299)))))))
 (let (($x20698 (not bool.b17)))
 (let (($x5432 (and (not (and $x20698 $x6027)) (not (and bool.b17 (not (and $x31425 $x17299)))))))
 (let (($x34528 (and $x31425 (not (and (not (and $x21212 $x6784)) (not (and bool.b20 bool.b22)))))))
 (let (($x22575 (and $x30774 (not (and (not $x34528) (not (and bool.b23 (not (and $x21212 $x6784)))))))))
 (let (($x18155 (not $x22575)))
 (let (($x10853 (and $x20698 (and $x18155 (not (and bool.b21 (not (and $x31425 (and $x21212 $x6784)))))))))
 (let (($x12200 (and (not (and $x10289 (not (and $x15581 (and $x19086 $x10853))))) (not (and $x3274 (and (not $x5432) $x10216))))))
 (let (($x33937 (not (<= ?x789 241.0))))
 (let (($x14885 (exists ((?lambdaprime Real) )(! (let ((?x33634 (+ x3 (* (- 1.0) ?lambdaprime))))
 (let ((?x10420 (* 1.0 ?x33634)))
 (let (($x3274 (<= ?x10420 0.0)))
 (let (($x12981 (and bool.b20 $x3274)))
 (let (($x39632 (not $x12981)))
 (let ((?x4482 (* 20.0 ?lambdaprime)))
 (let ((?x12688 (+ x4 ?x4482)))
 (let ((?x26295 (- 1.0)))
 (let ((?x8651 (* ?x26295 ?x12688)))
 (let (($x31856 (<= ?x8651 (- 4910.0))))
 (let (($x7974 (not $x31856)))
 (let (($x3691 (not (<= ?x10420 33.0))))
 (let (($x27356 (not (and bool.b19 (not (and $x3691 $x7974))))))
 (let (($x7474 (not (and bool.b18 (not (and $x3691 (not (<= ?x8651 (- 4500.0)))))))))
 (let (($x30600 (and bool.b17 (not (and (not (<= ?x8651 (- 4100.0))) $x3691)))))
 (let (($x755 (not $x30600)))
 (let (($x14891 (not (and (and (and $x755 $x7474) $x27356) $x39632))))
 (and (and (<= 0.0 ?lambdaprime) (<= ?lambdaprime ?lambda)) $x14891)))))))))))))))))) :qid k!25))
 ))
 (or (or $x14885 (< ?lambda 0.0)) (and (not (and $x14032 (and $x33937 $x12200))) $x12590))))))))))))))))))))))))))))))))))))))))))))))))))))))))))))))))))))))))))))))))))))))))))))))))))))))))))))))))))))))))))))))))))))))))))))))))))))))))))))))))))))))))))))))))))))))))))))))))))))))))))))))))))))))))))))))))))))))))
 )
(check-sat)
